128 72
20 7 123 28 71 109 119 85 110 126 115 65 61 91 29 92 4 77 26 22 25 10 21 75 17 81 74 79 57 89 38 98 101 9 102 70 93 35 56 100 30 36 104 97 113 105 16 15 127 33 31 63 24 106 58 128 37 46 87 14 124 13 12 45 40 86 52 66 88 54 84 48 114 95 120 108 82 125 116 118 6 5 2 41 50 3 72 80 55 59 1 107 18 8 111 121 53 27 67 23 60 42 64 69 43 73 78 96 62 44 76 39 68 122 19 103 90 117 83 32 47 11 51 99 49 34 94 112 
